unknown
(model
; cardinality of BoundSet is 1
(declare-sort BoundSet 0)
; rep: @uc_BoundSet_0
; cardinality of UnboundSet is 1
(declare-sort UnboundSet 0)
(declare-fun groundTerm_2 () UnboundSet)
(define-fun IsArrogant ((BOUND_VARIABLE_394 BoundSet)) Bool true)
(define-fun IsZealous ((BOUND_VARIABLE_394 BoundSet)) Bool true)
(define-fun IsProponentOf ((BOUND_VARIABLE_406 BoundSet) (BOUND_VARIABLE_407 BoundSet)) Bool false)
(define-fun IsSeenAs ((BOUND_VARIABLE_406 BoundSet) (BOUND_VARIABLE_407 BoundSet)) Bool false)
)
sat
(model
; cardinality of BoundSet is 1
(declare-sort BoundSet 0)
; rep: @uc_BoundSet_0
; cardinality of UnboundSet is 1
(declare-sort UnboundSet 0)
(declare-fun groundTerm_4 () UnboundSet)
(define-fun IsArrogant ((BOUND_VARIABLE_420 BoundSet)) Bool true)
(define-fun IsZealous ((BOUND_VARIABLE_420 BoundSet)) Bool true)
(define-fun IsProponentOf ((BOUND_VARIABLE_428 BoundSet) (BOUND_VARIABLE_429 BoundSet)) Bool false)
(define-fun IsSeenAs ((BOUND_VARIABLE_428 BoundSet) (BOUND_VARIABLE_429 BoundSet)) Bool false)
)
